c ---- [ banner ] ------------------------------------------------------------
c
c Kissat SAT Solver
c 
c Copyright (c) 2021-2024 Armin Biere University of Freiburg
c Copyright (c) 2019-2021 Armin Biere Johannes Kepler University Linz
c 
c Version 4.0.1 43f02cf3e992cb44653b35e5cb26f93281552ae0
c gcc (Ubuntu 13.2.0-23ubuntu4) 13.2.0 -W -Wall -O3 -DNDEBUG
c Thu Sep 12 12:27:46 CEST 2024 Linux abryzen9 6.8.0-41-generic x86_64
c
c ---- [ parsing ] -----------------------------------------------------------
c
c opened and reading DIMACS file:
c
c   /data/artifact/AMulet2.0_artifact/exp4/cnf_resyn3_64/64_64_U1_DT_BK_Multgen_resyn3.cnf
c
c parsed 'p cnf 25236 112892' header
c closing input after reading 2236980 bytes (2 MB)
c finished parsing after 0.02 seconds
c
c ---- [ options ] -----------------------------------------------------------
c
c --stable=0                       (different from default '1')
c
c ---- [ solving ] -----------------------------------------------------------
c
c  seconds switched rate     size/glue tier1  binary          remaining
c         MB reductions conflicts size  tier2    irredundant
c          level restarts redundant glue  trail          variables
c
c *  0.02  9 0 0 0  0 0   0   0 0.0 0 0 0 0 0% 9692 103198 25233 100%
c (  0.03 11 0 0 0  0 0   0   0 0.0 0 0 0 0 0% 9692 103198 25233 100%
c .  0.03 11 0 0 0  0 0   0   0 0.0 0 0 0 0 0% 9688 103198 25233 100%
c f  0.16 15 0 0 0  0 0   0   0 0.0 0 0 0 0 0% 14478 95722 27930 111%
c e  0.28 19 0 0 0  0 0   0   0 0.0 0 0 0 0 0% 9016 103594 19133 76%
c )  0.28 19 0 0 0  0 0   0   0 0.0 0 0 0 0 0% 9016 103594 19133 76%
c {  0.30 23 0 0 0  0 0   0   0 0.0 0 0 2 6 0% 9016 103594 19133 76%
c -  0.47 25 166 0 1 251 32 1000 764 3.1 18 6 3 10 25% 9047 103593 19133 76%
c -  0.63 25 308 0 2 388 42 2000 1458 4.1 25 6 3 11 23% 9074 103593 19133 76%
c d  0.79 25 279 0 2 526 45 2503 1921 4.1 32 8 3 11 25% 9065 103593 19126 76%
c u  0.80 25 279 0 2 526 45 2503 1582 4.1 32 8 3 11 25% 9077 103593 19126 76%
c v  0.82 25 279 0 2 526 45 2503 1357 4.1 32 8 3 11 25% 9077 103593 19126 76%
c w  0.84 25 279 0 2 526 45 2503 1356 4.1 32 8 3 11 25% 9077 103593 19126 76%
c x  0.86 25 279 0 2 526 45 2503 1356 4.1 32 8 3 11 25% 9077 103590 19126 76%
c f  0.89 25 279 0 2 526 45 2503 1356 4.1 32 8 3 11 25% 9694 102340 19723 78%
c c  0.94 23 279 0 2 526 45 2503 1352 4.1 32 8 3 11 25% 9697 102332 19722 78%
c d  0.94 23 279 0 2 526 45 2503 1352 4.1 32 8 3 11 25% 9695 102332 19722 78%
c u  0.95 23 279 0 2 526 45 2503 1305 4.1 32 8 3 11 25% 9696 102332 19722 78%
c v  0.96 23 279 0 2 526 45 2503 1271 4.1 32 8 3 11 25% 9696 102332 19722 78%
c w  1.01 29 279 0 2 526 45 2503 1269 4.1 32 8 3 11 25% 9696 102332 19722 78%
c
c  seconds   switched   rate       size/glue tier1     binary          remaining
c         MB  reductions conflicts       size  tier2      irredundant
c           level restarts    redundant    glue    trail          variables
c
c =  1.08 29 279 0 2 526 45 2503 1269 4.1 32 8 3 11 25% 9742 102330 19699 78%
c d  1.09 29 279 0 2 526 45 2503 1269 4.1 32 8 3 11 25% 9691 102330 19699 78%
c f  1.12 29 279 0 2 526 45 2503 1269 4.1 32 8 3 11 25% 9784 102189 19746 78%
c -  1.32 29 322 0 3 644 43 3414 1796 4.2 34 8 3 13 26% 9795 102189 19746 78%
c -  1.45 29 350 0 4 687 36 5146 2754 3.9 30 8 3 11 26% 9853 102189 19746 78%
c -  1.84 29 350 0 5 904 37 7147 3785 4.0 31 8 3 12 28% 9940 102189 19746 78%
c d  1.94 29 337 0 5 950 36 7706 4189 4.1 32 8 3 12 27% 9847 102189 19684 78%
c u  1.96 29 337 0 5 950 36 7706 3542 4.1 32 8 3 12 27% 9867 102189 19684 78%
c v  1.98 29 337 0 5 950 36 7706 3203 4.1 32 8 3 12 27% 9867 102189 19684 78%
c w  2.00 29 337 0 5 950 36 7706 3203 4.1 32 8 3 12 27% 9867 102189 19684 78%
c x  2.02 29 337 0 5 950 36 7706 3203 4.1 32 8 3 12 27% 9867 102140 19684 78%
c =  2.10 29 337 0 5 950 36 7706 3203 4.1 32 8 3 12 27% 10375 102140 19430 77%
c d  2.11 29 337 0 5 950 36 7706 3183 4.1 32 8 3 12 27% 9715 102140 19428 77%
c t  2.12 29 337 0 5 950 36 7706 3183 4.1 32 8 3 12 27% 9706 102140 19428 77%
c f  2.15 29 337 0 5 950 36 7706 3183 4.1 32 8 3 12 27% 11318 99720 20234 80%
c u  2.18 29 337 0 5 950 36 7706 3069 4.1 32 8 3 12 27% 11323 99720 20234 80%
c v  2.20 29 337 0 5 950 36 7706 2972 4.1 32 8 3 12 27% 11323 99720 20234 80%
c w  2.24 29 337 0 5 950 36 7706 2971 4.1 32 8 3 12 27% 11323 99720 20234 80%
c =  2.32 29 337 0 5 950 36 7706 2971 4.1 32 8 3 12 27% 11789 99720 20001 79%
c d  2.33 29 337 0 5 950 36 7706 2971 4.1 32 8 3 12 27% 11158 99720 20001 79%
c
c  seconds   switched   rate       size/glue tier1     binary          remaining
c         MB  reductions conflicts       size  tier2       irredundant
c           level restarts    redundant    glue    trail          variables
c
c t  2.34 29 337 0 5 950 36 7706 2971 4.1 32 8 3 12 27% 11132 99720 20001 79%
c f  2.37 29 337 0 5 950 36 7706 2971 4.1 32 8 3 12 27% 13626 95978 21249 84%
c -  2.69 29 338 0 6 1102 35 9383 3921 4.0 33 8 3 11 28% 13660 95978 21249 84%
c o  2.86 29 332 0 6 1159 36 10001 4445 4.3 37 9 3 11 29% 13682 95978 21249 84%
c -  3.25 29 332 0 7 1338 35 11832 5154 4.4 39 9 2 11 30% 13709 95978 21249 84%
c s  3.38 29 325 0 7 1381 34 12507 5737 4.4 39 9 2 11 30% 13721 94654 21249 84%
c e  3.46 29 325 0 7 1381 34 12507 5737 4.4 39 9 2 11 30% 13356 94856 20958 83%
c 2  3.46 29 325 0 7 1381 34 12507 5737 4.4 39 9 2 11 30% 13355 94856 20958 83%
c s  3.46 29 325 0 7 1381 34 12507 5737 4.4 39 9 2 11 30% 13361 94688 20958 83%
c e  3.47 29 325 0 7 1381 34 12507 5737 4.4 39 9 2 11 30% 13342 94699 20942 83%
c ^  3.47 29 325 0 7 1381 34 12507 5737 4.4 39 9 2 11 30% 13342 94699 20942 83%
c -  3.87 29 314 0 8 1486 32 14477 6070 4.4 39 9 2 11 31% 13407 94699 20942 83%
c c  4.25 29 317 0 8 1555 32 15786 7234 4.5 39 9 2 11 31% 13464 94523 20892 83%
c d  4.26 29 317 0 8 1555 32 15786 7194 4.5 39 9 2 11 31% 12976 94523 20665 82%
c u  4.30 29 317 0 8 1555 32 15786 6382 4.5 39 9 2 11 31% 12982 94523 20665 82%
c v  4.37 29 317 0 8 1555 32 15786 5394 4.5 39 9 2 11 31% 12983 94523 20665 82%
c w  4.51 29 317 0 8 1555 32 15786 5378 4.5 39 9 2 11 31% 12983 94523 20665 82%
c =  4.75 29 317 0 8 1555 32 15786 5378 4.5 39 9 2 11 31% 13535 94521 20389 81%
c d  4.76 29 317 0 8 1555 32 15786 5334 4.5 39 9 2 11 31% 12866 94521 20386 81%
c t  4.78 29 317 0 8 1555 32 15786 5334 4.5 39 9 2 11 31% 12770 94521 20386 81%
c
c  seconds   switched    rate        size/glue tier1     binary          remaining
c         MB  reductions   conflicts       size  tier2       irredundant
c           level  restarts     redundant    glue    trail          variables
c
c f  4.84 29 317 0 8 1555 32 15786 5334 4.5 39 9 2 11 31% 12793 94458 20405 81%
c u  4.89 29 317 0 8 1555 32 15786 5135 4.5 39 9 2 11 31% 12793 94458 20405 81%
c v  4.93 29 317 0 8 1555 32 15786 4985 4.5 39 9 2 11 31% 12793 94458 20405 81%
c w  5.03 29 317 0 8 1555 32 15786 4977 4.5 39 9 2 11 31% 12793 94458 20405 81%
c x  5.08 29 317 0 8 1555 32 15786 4977 4.5 39 9 2 11 31% 12793 94252 20405 81%
c =  5.27 29 317 0 8 1555 32 15786 4977 4.5 39 9 2 11 31% 14877 94252 19363 77%
c d  5.28 29 317 0 8 1555 32 15786 4917 4.5 39 9 2 11 31% 11833 94252 19363 77%
c -  5.73 29 302 0 9 1726 32 17307 5223 4.7 42 9 2 11 31% 11888 94252 19363 77%
c o  6.19 29 297 0 9 1935 32 20154 7588 4.8 43 9 2 11 31% 11972 94252 19363 77%
c -  6.22 29 296 0 10 1952 32 20308 6736 4.8 43 9 2 10 31% 11973 94252 19363 77%
c -  6.56 29 282 0 11 2048 30 23471 8000 4.7 41 9 2 10 30% 12054 94252 19363 77%
c s  6.87 29 286 0 11 2166 29 25009 9429 4.5 41 9 2 10 30% 12068 91151 19363 77%
c e  6.95 29 286 0 11 2166 29 25009 9429 4.5 41 9 2 10 30% 9189 95204 17714 70%
c s  6.96 29 286 0 11 2166 29 25009 9429 4.5 41 9 2 10 30% 9191 94951 17714 70%
c e  6.96 29 286 0 11 2166 29 25009 9429 4.5 41 9 2 10 30% 9190 94953 17713 70%
c ^  6.96 29 286 0 11 2166 29 25009 9429 4.5 41 9 2 10 30% 9190 94953 17713 70%
c -  7.16 29 304 0 12 2238 29 26787 8132 4.5 40 9 2 10 30% 9236 94953 17713 70%
c c  7.20 29 304 0 12 2242 29 26913 8251 4.5 40 9 2 10 30% 9326 94509 17650 70%
c d  7.21 29 304 0 12 2242 29 26913 8171 4.5 40 9 2 10 30% 8960 94509 17509 69%
c u  7.23 29 304 0 12 2242 29 26913 7216 4.5 40 9 2 10 30% 8971 94509 17509 69%
c
c  seconds   switched     rate        size/glue tier1     binary         remaining
c         MB   reductions   conflicts       size  tier2      irredundant
c           level   restarts     redundant    glue    trail         variables
c
c v  7.26 29 304 0 12 2242 29 26913 6361 4.5 40 9 2 10 30% 8973 94509 17509 69%
c w  7.27 29 304 0 12 2242 29 26913 6359 4.5 40 9 2 10 30% 8973 94509 17509 69%
c =  7.45 29 304 0 12 2242 29 26913 6359 4.5 40 9 2 10 30% 12507 94509 15742 62%
c d  7.45 29 304 0 12 2242 29 26913 6197 4.5 40 9 2 10 30% 8892 94509 15740 62%
c t  7.46 29 304 0 12 2242 29 26913 6197 4.5 40 9 2 10 30% 8883 94509 15740 62%
c f  7.51 29 304 0 12 2242 29 26913 6197 4.5 40 9 2 10 30% 8892 94488 15744 62%
c c  7.55 29 304 0 12 2242 29 26913 6195 4.5 40 9 2 10 30% 8902 94448 15739 62%
c d  7.56 29 304 0 12 2242 29 26913 6195 4.5 40 9 2 10 30% 8892 94448 15739 62%
c u  7.58 29 304 0 12 2242 29 26913 5811 4.5 40 9 2 10 30% 8892 94448 15739 62%
c v  7.60 29 304 0 12 2242 29 26913 5681 4.5 40 9 2 10 30% 8892 94448 15739 62%
c w  7.60 29 304 0 12 2242 29 26913 5677 4.5 40 9 2 10 30% 8892 94448 15739 62%
c x  7.67 29 304 0 12 2242 29 26913 5677 4.5 40 9 2 10 30% 8892 86611 15739 62%
c =  7.87 29 304 0 12 2242 29 26913 5677 4.5 40 9 2 10 30% 12322 86581 14021 56%
c d  7.87 29 304 0 12 2242 29 26913 5626 4.5 40 9 2 10 30% 8842 86581 14021 56%
c t  7.88 29 304 0 12 2242 29 26913 5626 4.5 40 9 2 10 30% 8778 86581 14021 56%
c f  7.91 29 304 0 12 2242 29 26913 5626 4.5 40 9 2 10 30% 8794 86533 14030 56%
c -  8.17 29 292 0 13 2368 27 30251 7516 4.3 37 9 2 8 28% 8817 86532 14030 56%
c -  8.54 29 279 0 14 2552 26 33856 9384 4.2 36 9 2 8 28% 8891 86530 14030 56%
c -  8.97 29 266 0 15 2762 25 37598 10928 4.1 34 8 2 8 27% 8914 86528 14030 56%
c o  9.36 29 265 0 15 2969 25 40197 13326 4.0 34 9 2 8 28% 8935 86527 14030 56%
c
c  seconds   switched     rate         size/glue tier1    binary         remaining
c         MB   reductions   conflicts        size  tier2     irredundant
c           level   restarts      redundant    glue   trail         variables
c
c d  9.50 29 262 0 15 3042 25 41246 14188 4.0 34 8 2 8 28% 8851 86527 13983 55%
c u  9.54 29 262 0 15 3042 25 41246 12220 4.0 34 8 2 8 28% 8864 86527 13983 55%
c v  9.58 29 262 0 15 3042 25 41246 11451 4.0 34 8 2 8 28% 8864 86527 13983 55%
c w  9.61 29 262 0 15 3042 25 41246 11451 4.0 34 8 2 8 28% 8864 86527 13983 55%
c x  9.65 29 262 0 15 3042 25 41246 11451 4.0 34 8 2 8 28% 8864 79246 13983 55%
c =  9.81 29 262 0 15 3042 25 41246 11451 4.0 34 8 2 8 28% 8974 79246 13928 55%
c d  9.81 29 262 0 15 3042 25 41246 11441 4.0 34 8 2 8 28% 8857 79246 13926 55%
c t  9.83 29 262 0 15 3042 25 41246 11441 4.0 34 8 2 8 28% 8851 79246 13926 55%
c f  9.83 29 262 0 15 3042 25 41246 11441 4.0 34 8 2 8 28% 8853 79240 13927 55%
c c  9.87 29 262 0 15 3042 25 41246 11399 4.0 34 8 2 8 28% 8909 79006 13897 55%
c d  9.88 29 262 0 15 3042 25 41246 11399 4.0 34 8 2 8 28% 8849 79006 13897 55%
c u  9.91 29 262 0 15 3042 25 41246 10859 4.0 34 8 2 8 28% 8859 79006 13897 55%
c v  9.95 29 262 0 15 3042 25 41246 9945 4.0 34 8 2 8 28% 8860 79006 13897 55%
c w  9.99 29 262 0 15 3042 25 41246 9945 4.0 34 8 2 8 28% 8860 79006 13897 55%
c x 10.04 29 262 0 15 3042 25 41246 9945 4.0 34 8 2 8 28% 8860 71921 13897 55%
c d 10.19 29 262 0 15 3042 25 41246 9937 4.0 34 8 2 8 28% 8852 71921 13893 55%
c f 10.21 29 262 0 15 3042 25 41246 9937 4.0 34 8 2 8 28% 8853 71917 13894 55%
c - 10.29 29 261 0 16 3099 25 41470 8679 4.0 34 9 2 8 28% 8853 71917 13894 55%
c - 10.49 29 255 0 17 3209 24 45470 10495 3.9 32 8 2 8 27% 8891 71917 13894 55%
c - 11.10 29 246 0 18 3619 24 49593 12424 3.9 33 8 2 7 27% 8965 71913 13894 55%
c
c  seconds   switched     rate         size/glue tier1    binary         remaining
c         MB   reductions   conflicts        size  tier2     irredundant
c           level   restarts      redundant    glue   trail         variables
c
c i 11.27 29 240 0 18 3702 23 51906 14385 3.9 32 8 2 7 27% 9002 71912 13893 55%
c s 11.32 29 239 0 18 3716 23 52113 14584 3.9 32 8 2 7 27% 9002 69544 13893 55%
c e 11.37 29 239 0 18 3716 23 52113 14584 3.9 32 8 2 7 27% 8639 69886 13549 54%
c 2 11.37 29 239 0 18 3716 23 52113 14584 3.9 32 8 2 7 27% 8630 69886 13549 54%
c s 11.38 29 239 0 18 3716 23 52113 14584 3.9 32 8 2 7 27% 8632 69654 13549 54%
c e 11.38 29 239 0 18 3716 23 52113 14584 3.9 32 8 2 7 27% 8623 69668 13543 54%
c ^ 11.38 29 239 0 18 3716 23 52113 14584 3.9 32 8 2 7 27% 8623 69668 13543 54%
c - 11.61 29 237 0 19 3867 24 53835 12702 3.9 32 8 2 7 27% 8683 69668 13543 54%
c - 12.27 29 233 0 20 4338 24 58194 14387 3.9 33 8 2 7 27% 8744 69668 13543 54%
c c 12.37 29 233 0 20 4378 24 58899 14992 3.9 33 8 2 7 27% 8937 68577 13379 53%
c d 12.38 29 233 0 20 4378 24 58899 14344 3.9 33 8 2 7 27% 8609 68577 13379 53%
c u 12.42 29 233 0 20 4378 24 58899 12028 3.9 33 8 2 7 27% 8643 68577 13379 53%
c v 12.46 29 233 0 20 4378 24 58899 10651 3.9 33 8 2 7 27% 8648 68577 13379 53%
c w 12.49 29 233 0 20 4378 24 58899 10615 3.9 33 8 2 7 27% 8648 68577 13379 53%
c x 12.55 29 233 0 20 4378 24 58899 10614 3.9 33 8 2 7 27% 8648 68356 13379 53%
c d 12.55 29 233 0 20 4378 24 58899 10597 3.9 33 8 2 7 27% 8606 68356 13358 53%
c t 12.56 29 233 0 20 4378 24 58899 10597 3.9 33 8 2 7 27% 8593 68356 13358 53%
c f 12.57 29 233 0 20 4378 24 58899 10597 3.9 33 8 2 7 27% 8610 68292 13365 53%
c c 12.61 29 233 0 20 4378 24 58899 10547 3.9 33 8 2 7 27% 8630 68204 13354 53%
c d 12.61 29 233 0 20 4378 24 58899 10547 3.9 33 8 2 7 27% 8608 68204 13354 53%
c
c  seconds   switched     rate         size/glue tier1    binary         remaining
c         MB   reductions   conflicts        size  tier2     irredundant
c           level   restarts      redundant    glue   trail         variables
c
c u 12.65 29 233 0 20 4378 24 58899 10024 3.9 33 8 2 7 27% 8617 68204 13354 53%
c v 12.68 29 233 0 20 4378 24 58899 9801 3.9 33 8 2 7 27% 8619 68204 13354 53%
c w 12.70 29 233 0 20 4378 24 58899 9786 3.9 33 8 2 7 27% 8619 68204 13354 53%
c = 12.92 29 233 0 20 4378 24 58899 9786 3.9 33 8 2 7 27% 8863 68204 13232 52%
c d 12.93 29 233 0 20 4378 24 58899 9694 3.9 33 8 2 7 27% 8605 68204 13228 52%
c i 13.37 29 230 0 20 4657 24 61865 12349 3.9 33 8 2 7 27% 8643 68204 13225 52%
c - 13.45 29 232 0 21 4694 24 62666 11367 3.8 32 8 2 7 27% 8645 68203 13225 52%
c - 14.01 29 228 0 22 5046 24 67249 13459 3.8 32 8 2 7 28% 8748 68203 13225 52%
c o 14.49 29 226 0 22 5368 24 70214 16148 3.8 32 8 2 7 28% 8786 68203 13225 52%
c - 14.92 29 225 0 23 5668 25 71940 15401 3.9 33 9 2 7 28% 8802 68203 13225 52%
c - 15.41 29 223 0 24 5997 24 76736 16829 3.8 33 9 2 7 28% 8934 68203 13225 52%
c d 15.83 29 220 0 24 6282 24 80000 19256 3.8 33 9 2 7 28% 8668 68165 13059 52%
c d 15.84 29 220 0 24 6282 24 80000 19248 3.8 33 9 2 7 28% 8654 68161 13053 52%
c b 15.84 29 220 0 24 6282 24 80000 19248 3.8 33 9 2 7 28% 8654 68161 13052 52%
c u 15.89 29 220 0 24 6282 24 80000 15993 3.8 33 9 2 7 28% 8693 68161 13050 52%
c v 15.96 29 220 0 24 6282 24 80000 14027 3.8 33 9 2 7 28% 8698 68161 13050 52%
c w 16.02 29 220 0 24 6282 24 80000 14027 3.8 33 9 2 7 28% 8698 68161 13050 52%
c x 16.08 29 220 0 24 6282 24 80000 14025 3.8 33 9 2 7 28% 8711 65522 13050 52%
c = 16.23 29 220 0 24 6282 24 80000 14025 3.8 33 9 2 7 28% 9119 65498 12842 51%
c d 16.24 29 220 0 24 6282 24 80000 13733 3.8 33 9 2 7 28% 8634 65492 12832 51%
c
c  seconds   switched     rate         size/glue tier1    binary         remaining
c         MB   reductions   conflicts        size  tier2     irredundant
c           level   restarts      redundant    glue   trail         variables
c
c d 16.24 29 220 0 24 6282 24 80000 13733 3.8 33 9 2 7 28% 8632 65492 12831 51%
c t 16.25 29 220 0 24 6282 24 80000 13733 3.8 33 9 2 7 28% 8605 65492 12831 51%
c f 16.26 29 220 0 24 6282 24 80000 13733 3.8 33 9 2 7 28% 8609 65480 12832 51%
c c 16.29 29 220 0 24 6282 24 80000 13707 3.8 33 9 2 7 28% 8619 65416 12822 51%
c d 16.30 29 220 0 24 6282 24 80000 13707 3.8 33 9 2 7 28% 8599 65416 12822 51%
c u 16.34 29 220 0 24 6282 24 80000 12954 3.8 33 9 2 7 28% 8610 65416 12821 51%
c v 16.37 29 220 0 24 6282 24 80000 12625 3.8 33 9 2 7 28% 8612 65416 12821 51%
c w 16.48 29 220 0 24 6282 24 80000 12595 3.8 33 9 2 7 28% 8612 65416 12821 51%
c x 16.54 29 220 0 24 6282 24 80000 12594 3.8 33 9 2 7 28% 8615 64091 12821 51%
c = 16.89 29 220 0 24 6282 24 80000 12594 3.8 33 9 2 7 28% 8987 64043 12631 50%
c d 16.90 29 220 0 24 6282 24 80000 12360 3.8 33 9 2 7 28% 8545 64043 12631 50%
c t 16.91 29 220 0 24 6282 24 80000 12360 3.8 33 9 2 7 28% 8504 64043 12631 50%
c f 16.91 29 220 0 24 6282 24 80000 12360 3.8 33 9 2 7 28% 8507 64020 12635 50%
c i 16.92 29 220 0 24 6282 24 80000 12360 3.8 33 9 2 7 28% 8507 64020 12635 50%
c - 17.10 29 220 0 25 6408 24 81634 11950 3.8 32 9 2 6 28% 8509 64020 12635 50%
c i 17.54 29 217 0 25 6756 24 86371 16101 3.7 31 9 2 6 28% 8569 64020 12634 50%
c - 17.59 29 217 0 26 6785 24 86635 14333 3.7 31 9 2 6 28% 8577 64020 12634 50%
c i 17.81 29 213 0 26 6908 23 89689 16919 3.6 31 8 2 6 27% 8617 64019 12633 50%
c i 17.81 29 213 0 26 6910 23 89697 16920 3.6 31 8 2 6 27% 8620 64019 12632 50%
c - 17.95 29 208 0 27 6980 23 91736 16387 3.6 31 8 2 6 27% 8622 64019 12632 50%
c
c  seconds   switched     rate         size/glue tier1    binary         remaining
c         MB   reductions   conflicts        size  tier2     irredundant
c           level   restarts      redundant    glue   trail         variables
c
c i 18.33 29 205 0 27 7252 22 95725 19835 3.6 30 8 2 6 27% 8682 64019 12631 50%
c s 18.34 29 205 0 27 7258 22 95852 19959 3.6 30 8 2 6 27% 8681 63085 12631 50%
c e 18.42 29 205 0 27 7258 22 95852 19959 3.6 30 8 2 6 27% 5726 69716 11022 44%
c 2 18.42 29 205 0 27 7258 22 95852 19959 3.6 30 8 2 6 27% 5724 69716 11022 44%
c s 18.43 29 205 0 27 7258 22 95852 19959 3.6 30 8 2 6 27% 5727 69130 11022 44%
c e 18.44 29 205 0 27 7258 22 95852 19959 3.6 30 8 2 6 27% 5711 69177 11007 44%
c ^ 18.44 29 205 0 27 7258 22 95852 19959 3.6 30 8 2 6 27% 5711 69177 11007 44%
c - 18.55 29 204 0 28 7337 22 96932 11668 3.5 30 8 1 6 27% 5730 69169 11007 44%
c i 18.58 29 204 0 28 7372 22 97072 11790 3.5 30 8 1 6 27% 5732 69166 11006 44%
c i 18.73 29 203 0 28 7468 22 98527 13045 3.5 30 8 1 6 27% 5756 69159 11005 44%
c i 18.75 29 203 0 28 7493 22 98706 13205 3.5 30 8 1 6 27% 5761 69159 11004 44%
c i 18.79 29 203 0 28 7513 22 98926 13407 3.5 30 8 1 6 27% 5763 69159 11003 44%
c i 18.80 29 202 0 28 7526 22 99231 13639 3.5 30 8 1 6 27% 5777 69159 11002 44%
c i 18.80 29 202 0 28 7526 22 99302 13686 3.5 30 8 1 6 27% 5780 69159 11001 44%
c - 18.96 29 198 0 29 7627 21 102226 13262 3.5 29 8 1 6 27% 5815 69159 11001 44%
c i 19.01 29 197 0 29 7654 21 103050 13904 3.4 29 8 1 6 27% 5841 69159 11000 44%
c d 19.18 29 194 0 29 7799 21 104687 14579 3.4 29 8 1 6 27% 5736 69090 10937 43%
c d 19.18 29 194 0 29 7799 21 104687 14573 3.4 29 8 1 6 27% 5724 69087 10931 43%
c u 19.21 29 194 0 29 7799 21 104687 12917 3.4 29 8 1 6 27% 5746 69087 10931 43%
c v 19.26 29 194 0 29 7799 21 104687 10581 3.4 29 8 1 6 27% 5749 69087 10931 43%
c
c  seconds   switched     rate          size/glue tier1    binary         remaining
c         MB   reductions   conflicts         size  tier2     irredundant
c           level   restarts       redundant    glue   trail         variables
c
c w 19.31 29 194 0 29 7799 21 104687 10561 3.4 29 8 1 6 27% 5749 69087 10931 43%
c x 19.37 29 194 0 29 7799 21 104687 10561 3.4 29 8 1 6 27% 5749 68943 10931 43%
c = 19.64 29 194 0 29 7799 21 104687 10561 3.4 29 8 1 6 27% 5879 68892 10864 43%
c d 19.65 29 194 0 29 7799 21 104687 10133 3.4 29 8 1 6 27% 5700 68892 10864 43%
c t 19.66 29 194 0 29 7799 21 104687 10133 3.4 29 8 1 6 27% 5687 68892 10864 43%
c f 19.70 29 194 0 29 7799 21 104687 10133 3.4 29 8 1 6 27% 5697 68845 10868 43%
c u 19.72 29 194 0 29 7799 21 104687 9786 3.4 29 8 1 6 27% 5697 68845 10868 43%
c v 19.75 29 194 0 29 7799 21 104687 9258 3.4 29 8 1 6 27% 5697 68845 10868 43%
c w 19.82 29 194 0 29 7799 21 104687 9121 3.4 29 8 1 6 27% 5697 68845 10868 43%
c t 20.10 29 194 0 29 7799 21 104687 9121 3.4 29 8 1 6 27% 5695 68845 10868 43%
c - 20.33 29 191 0 30 7992 21 107613 9409 3.4 28 8 1 6 27% 5713 68845 10868 43%
c i 20.47 29 188 0 30 8118 20 109683 11172 3.3 28 8 1 6 27% 5737 68845 10867 43%
c i 20.51 29 187 0 30 8156 20 110145 11562 3.3 28 8 1 6 27% 5749 68845 10861 43%
c i 20.51 29 187 0 30 8156 20 110162 11572 3.3 28 8 1 6 27% 5751 68845 10860 43%
c i 20.51 29 187 0 30 8156 20 110273 11656 3.3 28 8 1 6 27% 5755 68845 10858 43%
c o 20.52 29 187 0 30 8156 20 110273 11656 3.3 28 8 1 6 27% 5755 68845 10858 43%
c i 20.55 29 186 0 30 8193 20 110531 11880 3.3 28 8 1 6 27% 5760 68844 10855 43%
c i 20.55 29 186 0 30 8193 20 110561 11895 3.3 28 8 1 6 27% 5765 68842 10853 43%
c i 20.55 29 186 0 30 8193 20 110671 11954 3.3 28 8 1 6 27% 5773 68841 10844 43%
c i 20.55 29 186 0 30 8193 20 110692 11972 3.3 28 8 1 6 27% 5774 68841 10841 43%
c
c  seconds   switched     rate          size/glue tier1    binary         remaining
c         MB   reductions   conflicts         size  tier2     irredundant
c           level   restarts       redundant    glue   trail         variables
c
c i 20.55 29 186 0 30 8193 20 110726 11997 3.3 28 8 1 6 27% 5777 68841 10840 43%
c i 20.56 29 186 0 30 8196 20 110756 12018 3.3 28 8 1 6 27% 5781 68841 10839 43%
c i 20.56 29 186 0 30 8196 20 110763 12019 3.3 28 8 1 6 27% 5783 68841 10838 43%
c } 20.56 29 186 0 30 8196 20 110766 12019 3.3 28 8 1 6 27% 5784 68841 10812 43%
c 0 20.56 29 186 0 30 8196 20 110766 12019 3.3 28 8 1 6 27% 5784 68841 10812 43%
c
c ---- [ result ] ------------------------------------------------------------
c
s UNSATISFIABLE
c
c ---- [ profiling ] ---------------------------------------------------------
c
c          13.86   67.42 %  search
c          13.86   67.42 %  focused
c           6.40   31.14 %  simplify
c           6.13   29.81 %  probe
c           2.64   12.85 %  sweep
c           2.24   10.90 %  vivify
c           0.44    2.15 %  factor
c           0.41    1.97 %  eliminate
c           0.35    1.69 %  congruence
c           0.33    1.60 %  substitute
c           0.25    1.20 %  preprocess
c           0.12    0.59 %  reduce
c           0.11    0.54 %  fastel
c           0.09    0.44 %  transitive
c           0.07    0.35 %  subsume
c           0.04    0.18 %  backbone
c           0.03    0.14 %  lucky
c           0.02    0.09 %  parse
c =============================================
c          20.56  100.00 %  total
c
c ---- [ statistics ] --------------------------------------------------------
c
c chronological:                         4059                4 %  conflicts
c conflicts:                           110766             5387.73 per second
c congruent:                              334                1 %  variables
c decisions:                          2255882               20.37 per conflict
c eliminated:                           12728               50 %  variables
c factored:                              5445               22 %  variables
c fast_eliminated:                       8797               69 %  eliminated
c fast_strengthened:                       10                2 %  per strengthened
c fast_subsumed:                           69                1 %  per subsumed
c iterations:                              25                0 %  variables
c propagations:                     100156633          4871682    per second
c reductions:                              30             3692    interval
c reordered:                                5            22153    interval
c restarts:                              8196               14    interval
c strengthened:                           664                0 %  checks
c substituted:                           7050               28 %  variables
c subsumed:                              8993                0 %  checks
c switched:                                 0                0    interval
c vivified:                             61796               15 %  checks
c
c ---- [ glue usage ] --------------------------------------------------------
c
c focused glue 1   used 140799 clauses 50.70% accumulated 50.70% tier1
c focused glue 2   used  61905 clauses 22.29% accumulated 72.98%
c focused glue 3-4 used  33792 clauses 12.17% accumulated 85.15%
c focused glue 5   used   8485 clauses  3.06% accumulated 88.21%
c focused glue 6   used   6398 clauses  2.30% accumulated 90.51% tier2
c
c ---- [ resources ] ---------------------------------------------------------
c
c maximum-resident-set-size:         30666752 bytes         29 MB
c process-time:                            21s              20.56 seconds
c
c ---- [ shutting down ] -----------------------------------------------------
c
c exit 20
